p cnf 50 80
37 -42 -39 0
-13 32 31 0
-2 10 -17 0
27 35 -45 0
-10 -6 31 0
19 -33 8 0
-43 13 17 0
-25 -13 38 0
3 21 42 0
-49 26 -44 0
-30 -10 -28 0
-1 13 35 0
26 24 -4 0
47 -4 -31 0
-49 42 -36 0
-22 7 35 0
-8 -24 11 0
17 7 38 0
-10 -7 18 0
26 -11 50 0
36 -5 12 0
-39 -48 -3 0
24 -27 48 0
48 18 -13 0
50 -46 6 0
-46 -44 23 0
-18 8 3 0
-3 41 -16 0
-38 45 11 0
-45 -19 13 0
24 5 -13 0
24 -21 -3 0
-38 41 -14 0
-35 2 -6 0
-22 40 21 0
35 7 -18 0
-18 30 -6 0
49 -45 -3 0
8 36 45 0
-38 -43 -18 0
-24 27 -19 0
-16 -4 28 0
19 40 -17 0
-2 -34 -32 0
-16 5 -38 0
-15 30 21 0
30 28 -21 0
-24 19 -49 0
-19 -21 -32 0
43 42 34 0
x -1 -6 -7 10 -11 14 15 16 -18 20 22 -23 -24 25 -27 30 32 -33 35 -36 37 38 -39 41 43 46 48 -49 50 0
x 4 6 7 8 -9 -10 13 16 -18 -19 -20 -24 26 27 -31 32 -33 -35 38 40 -42 46 49 0
x -3 -4 5 8 -13 15 16 17 19 21 -22 -23 -25 -26 27 29 -30 -33 -34 -35 37 38 -39 -41 43 48 49 0
x 5 9 -10 -12 -13 -18 19 20 21 -24 -25 27 -29 31 -32 -33 -34 -35 37 38 -39 -42 43 -45 46 49 0
x -1 -3 4 -6 7 8 -11 12 -14 -17 -25 -27 29 30 32 33 37 38 -40 42 -44 46 48 -50 0
x 1 -3 4 -6 -12 13 -15 16 17 -18 -20 22 23 26 -28 35 36 37 -40 41 43 -45 46 -49 -50 0
x -2 -3 5 -6 10 11 -13 14 -19 -22 23 25 26 -27 -30 -31 -32 33 -37 -39 -40 -41 43 -44 -46 -47 0
x -2 -3 -6 -9 10 -11 -12 -14 -15 -17 -20 23 26 -28 -29 -31 -32 -34 35 36 39 40 -43 44 -46 50 0
x -1 -4 6 8 -10 14 17 18 19 22 -23 -25 28 -29 31 -34 35 36 -38 39 -40 45 -47 -49 0
x -2 -3 -4 -6 -8 9 10 14 15 18 -20 21 -27 -30 -32 33 -34 -35 -36 -39 40 -41 -42 43 -45 47 49 -50 0
x -1 2 -5 -6 7 14 15 -16 -17 -18 19 -20 -22 23 -26 29 -33 34 -36 -37 -39 40 41 -43 44 -45 47 49 0
x -4 7 -8 -9 -10 -12 -14 15 17 -18 19 -20 -21 -27 -30 -31 32 -33 -34 35 -36 -41 -43 -45 -50 0
x 4 5 -6 8 11 -12 14 15 18 20 22 23 -24 -27 30 31 32 33 -34 35 36 39 -41 42 -44 -46 -47 48 49 50 0
x 1 2 -3 -5 6 -7 -8 9 -10 -11 -13 -14 -15 16 17 -21 23 25 -26 30 31 32 34 -38 -41 42 -43 45 -46 -47 50 0
x -2 4 -5 6 -7 10 11 12 -13 14 -21 22 24 26 29 31 -34 -37 -39 43 -44 -45 -47 0
x -3 4 -5 -8 -9 10 -11 12 -14 15 -16 19 20 21 23 -24 26 -27 28 31 -33 35 36 -38 40 41 44 -46 -47 -48 49 -50 0
x -1 -2 -10 14 19 -20 -21 24 -25 27 -30 -31 33 -34 -35 -36 -37 -38 -40 41 44 -45 46 -47 -48 -50 0
x -4 6 -7 9 -10 13 14 -16 18 -21 -23 24 25 -26 27 28 -29 -31 33 36 -38 39 40 41 42 -44 -45 -47 -48 -50 0
x 3 6 7 8 -10 11 13 -14 18 20 24 -26 -27 28 31 33 36 -37 -40 43 -44 47 48 49 0
x -1 2 -3 6 -8 9 10 -12 -14 15 -17 19 -20 22 27 -28 29 34 41 -45 49 0
x 2 -3 5 -10 11 12 13 -15 -16 17 19 24 -25 -27 32 -33 -37 42 46 -47 0
x 3 4 -6 7 -9 14 -16 -18 -19 -20 21 23 -24 25 29 -34 35 39 -43 -44 -45 -48 49 50 0
x -1 -2 -3 5 -13 15 -17 22 23 24 -25 26 -27 -28 30 34 -35 39 41 -44 -45 46 0
x -8 -9 -12 -15 16 17 -22 -23 24 26 27 30 -34 -39 40 -42 -43 44 0
x 1 4 -5 9 11 -15 16 17 19 -20 -23 24 -26 -27 29 30 31 32 -33 -34 -35 -37 -39 40 -42 43 46 -47 -48 50 0
x -1 -2 -4 -5 -7 8 -9 -13 14 -15 -16 17 18 21 22 -25 26 -29 -32 33 34 -35 36 -37 -38 -39 -41 47 48 -49 -50 0
x 4 7 8 -9 -11 -13 -14 15 -18 21 23 -25 28 -31 32 34 36 -37 38 42 45 -50 0
x -3 4 -5 -7 -9 -10 11 -12 15 -17 -20 21 -25 27 -28 29 31 32 -33 34 -35 -37 38 44 46 47 -49 0
x 1 -3 -7 -10 11 -12 -14 -15 -17 -21 -25 -26 -27 29 -31 35 -36 -37 40 -41 43 -45 47 49 0
x 1 -2 3 5 -6 -7 8 10 11 12 13 -14 17 19 -23 -25 26 -27 30 31 -33 36 38 -43 -45 0
